************************************************************************
file with basedata            : cr138_.bas
initial value random generator: 821478444
************************************************************************
projects                      :  1
jobs (incl. supersource/sink ):  18
horizon                       :  117
RESOURCES
  - renewable                 :  1   R
  - nonrenewable              :  2   N
  - doubly constrained        :  0   D
************************************************************************
PROJECT INFORMATION:
pronr.  #jobs rel.date duedate tardcost  MPM-Time
    1     16      0       21        5       21
************************************************************************
PRECEDENCE RELATIONS:
jobnr.    #modes  #successors   successors
   1        1          3           2   3   4
   2        3          3           5  10  11
   3        3          2           6  11
   4        3          3           9  12  13
   5        3          2           7   8
   6        3          2           7  10
   7        3          1          13
   8        3          2           9  12
   9        3          2          15  16
  10        3          2          13  14
  11        3          3          15  16  17
  12        3          2          14  17
  13        3          2          15  17
  14        3          1          16
  15        3          1          18
  16        3          1          18
  17        3          1          18
  18        1          0        
************************************************************************
REQUESTS/DURATIONS:
jobnr. mode duration  R 1  N 1  N 2
------------------------------------------------------------------------
  1      1     0       0    0    0
  2      1     3      10    5    8
         2     5      10    4    6
         3     8       9    3    4
  3      1     2      10    4   10
         2     6       3    3    9
         3     6       5    3    7
  4      1     1       5    6    7
         2     7       4    5    5
         3     8       4    2    4
  5      1     2       7    3    7
         2     3       6    3    7
         3     7       4    2    6
  6      1     4       8   10   10
         2     6       7    6    8
         3    10       6    2    7
  7      1     4       9    4    3
         2     5       9    2    3
         3     7       8    2    2
  8      1     7       6    9   10
         2     9       5    8    9
         3     9       6    6   10
  9      1     1       8    6    8
         2     4       5    5    6
         3     4       6    5    5
 10      1     3       3    8    3
         2     4       3    5    2
         3     8       2    4    2
 11      1     1       7    6   10
         2     1       8    5   10
         3     2       6    3   10
 12      1     2       6    7    8
         2     4       5    5    7
         3     5       3    4    7
 13      1     5       9    6    5
         2     9       6    3    4
         3    10       4    3    3
 14      1     6       3   10    8
         2     8       2   10    7
         3    10       2    9    7
 15      1     6       9    6    7
         2     6      10    7    6
         3     7       8    5    4
 16      1     1       5    7    4
         2     6       2    6    4
         3    10       1    5    3
 17      1     4       9    6    4
         2     4       7    8    4
         3     6       6    2    3
 18      1     0       0    0    0
************************************************************************
RESOURCEAVAILABILITIES:
  R 1  N 1  N 2
   17   72   90
************************************************************************
